% demand
num_movements = 28;
loading_factor = [1600, 1850, 800, 950, 1400, 950, 1250, 1100, 1300, 1800, 1500, 1050, 1200, 1050, 1750, 1200, 1150, 1150, 800, 1950, 1550, 1700, 950, 800, 1650, 1100, 1400, 1250];
pickup_time = [0, 0, 0, 0, 1, 1, 1, 1, 3, 3, 3, 3, 3, 3, 3, 3, 5, 5, 5, 5, 5, 5, 5, 6, 6, 6, 6, 6];
delivery_time = [1, 1, 1, 1, 3, 2, 2, 2, 5, 5, 5, 5, 5, 5, 6, 5, 6, 7, 6, 7, 6, 7, 6, 7, 7, 7, 7, 7];

% transporter definition
total_capacity = 11000;
num_decks = 4;
capacity = [3000, 3000, 1000, 4000];

% ways out of decks
num_ways_out = 2;
paths_out = array3d(decks, ways_out, decks, [
% ways out of deck d1
2, 4, 0, 0, 3, 4, 0, 0, 

% ways out of deck d2
4, 0, 0, 0, 0, 0, 0, 0,	

% ways out of deck d3
4, 0, 0, 0, 0, 0, 0, 0,	

% ways out of deck d4
0, 0, 0, 0,	0, 0, 0, 0,	

]);

